Route #1: 105 19 188 57 63 172 120 13 171 66 64 110 168 127 44 133 129 72 88 165 1 149 160 182 83 29
Route #2: 102 4 163 128 34 95 25 183 136 167 143 97 78 169 80 85 138 28 58 43 10 73 103 108 67
Route #3: 150 147 24 12 86 125 87 152 41 181 126 54 48 174 151 137 77 22 38 6 2 36 39 30
Route #4: 123 177 148 153 180 61 32 40 76 185 18 84 98 141 70 186 146 71 52 101 47 5 176 104 142
Route #5: 89 109 35 68 21 178 69 55 23 111 74 161 134 132 94 144 115 145 81 92 135 46
Route #6: 113 91 59 96 3 15 124 187 27 9 114 65 20 162 7 155 17 79 116 60 11 175
Route #7: 122 82 140 189 154 53 33 107 90 42 130 56 8 100 62 179 164 158 50 121 75 93 51
Route #8: 37 118 31 99 45 184 139 156 14 16 170 112 159 173 157 166 117 26 49 119 106 131
Cost 18689
